db/data/353822966193768565785616151883331859.z3.out
-------------------
2500.107050085
